Titel of Simulation                     
   1.00000000000000     
     2.9229245037235834    0.0000000000000000    0.0000000000000000
    -1.4614622518617917    2.5313268735225503    0.0000000000000000
     0.0000000000000000    0.0000000000000000    4.6280363528129049
   Ti
     2
Direct
  0.6666666666666643  0.3333333333333357  0.7500000000000000
  0.3333333333333357  0.6666666666666643  0.2500000000000000
 
  0.00000000E+00  0.00000000E+00  0.00000000E+00
  0.00000000E+00  0.00000000E+00  0.00000000E+00
