Titel of Simulation                     
   1.00000000000000     
    25.0000000000000000    0.0000000000000000    0.0000000000000000
     0.0000000000000000   25.0000000000000000    0.0000000000000000
     0.0000000000000000    0.0000000000000000   25.0000000000000000
   C 
    60
Direct
  0.4429778945183025  0.4993852422069798  0.6301126555107318
  0.4709577840753852  0.4509332406080776  0.6301121550423733
  0.5570327028952454  0.4993878248995950  0.6301102702060494
  0.5290558192615362  0.4509335863047048  0.6301102257971608
  0.4720260426336380  0.5496911677928559  0.6301050087674288
  0.5279811179473846  0.5496928557158751  0.6301044004615399
  0.3959821752281483  0.5057829177392354  0.5965616407409733
  0.4530091805551017  0.4070314762403204  0.5965642399558956
  0.4429696854574730  0.5871929509123177  0.5965701064788558
  0.5470064511773475  0.4070343183702317  0.5965608405579873
  0.6040238086809201  0.5057877834864859  0.5965551571415428
  0.5570332182053456  0.5871947103008044  0.5965662366681109
  0.3959767574163663  0.5600497423475856  0.5758340464139197
  0.5000062851393877  0.3798878603596713  0.5758343261880943
  0.6040242136582961  0.5600558934112049  0.5758254787493993
  0.3786897117524158  0.4635000317428677  0.5642540596353669
  0.4077373660035107  0.4131925966726797  0.5642577149794744
  0.4709478262166896  0.6233120749618940  0.5642608305382663
  0.5922734151488745  0.4131967861975869  0.5642514363323762
  0.5290503082578433  0.6233131613204503  0.5642581152889646
  0.6213165515646523  0.4635068299598386  0.5642449087926781
  0.3786716411872122  0.5700368186206580  0.5235653520469127
  0.5000044027334068  0.3599269409677366  0.5235555076910163
  0.6213237313230038  0.5700424724657474  0.5235548413206179
  0.3607196539186935  0.4738621143744201  0.5099875788442368
  0.4077223823875132  0.3924549303819275  0.5099885312739969
  0.4529903070111611  0.6336764618738788  0.5099888458403824
  0.5922847273721176  0.3924594901649684  0.5099801498747086
  0.5470036048914307  0.6336776857315266  0.5099865836340536
  0.6392803275512029  0.4738709804805100  0.5099759585386651
  0.3607196724487970  0.5261300195194875  0.4900240414613351
  0.4529963951085693  0.3663213142684690  0.4900144163659440
  0.4077152726278825  0.6075415098350290  0.4900188501252869
  0.5470096929888387  0.3663245381261186  0.4900091541596154
  0.5922776176124870  0.6075450696180724  0.4900124687260078
  0.6392793460813092  0.5261368856255753  0.4900124211557632
  0.3786742686769941  0.4299575275342527  0.4764451586793820
  0.4999945972665885  0.6400730590322635  0.4764444923089834
  0.6213263588127927  0.4299631813793423  0.4764356479530917
  0.3786824484353505  0.5364941700401590  0.4357560912073194
  0.4077265848511254  0.5868032138024128  0.4357495636676213
  0.4709496917421567  0.3766868386795496  0.4357408847110380
  0.5290521737833104  0.3766879250381061  0.4357391694617339
  0.6213112882475815  0.5364999682571323  0.4357449403646359
  0.5922636339964868  0.5868064033273227  0.4357412850205283
  0.3959747863416996  0.4399451065887927  0.4241745212506007
  0.4999937148606123  0.6201121396403289  0.4241646738119083
  0.6040222425836362  0.4399492576524100  0.4241669535860850
  0.3959761913190800  0.4942122165135140  0.4034468428584594
  0.4429677817946520  0.4128052896991958  0.4034337633318891
  0.4529945488226499  0.5929656816297683  0.4034391594420124
  0.5570303145425270  0.4128080490876868  0.4034298935211441
  0.5469918194449028  0.5929675237596821  0.4034347600440998
  0.6040178247718515  0.4942170822607645  0.4034373592590291
  0.4720198820526202  0.4503081442841225  0.3698975995384621
  0.4429682971047590  0.5006121751004051  0.3698917297939453
  0.4709451807384684  0.5490664136952951  0.3698907742028365
  0.5279749573663595  0.4503088322071441  0.3698949912325712
  0.5290432159246121  0.5490677593919200  0.3698878449576267
  0.5570231054816946  0.5006157577930178  0.3698863444892706
 
  0.00000000E+00  0.00000000E+00  0.00000000E+00
  0.00000000E+00  0.00000000E+00  0.00000000E+00
  0.00000000E+00  0.00000000E+00  0.00000000E+00
  0.00000000E+00  0.00000000E+00  0.00000000E+00
  0.00000000E+00  0.00000000E+00  0.00000000E+00
  0.00000000E+00  0.00000000E+00  0.00000000E+00
  0.00000000E+00  0.00000000E+00  0.00000000E+00
  0.00000000E+00  0.00000000E+00  0.00000000E+00
  0.00000000E+00  0.00000000E+00  0.00000000E+00
  0.00000000E+00  0.00000000E+00  0.00000000E+00
  0.00000000E+00  0.00000000E+00  0.00000000E+00
  0.00000000E+00  0.00000000E+00  0.00000000E+00
  0.00000000E+00  0.00000000E+00  0.00000000E+00
  0.00000000E+00  0.00000000E+00  0.00000000E+00
  0.00000000E+00  0.00000000E+00  0.00000000E+00
  0.00000000E+00  0.00000000E+00  0.00000000E+00
  0.00000000E+00  0.00000000E+00  0.00000000E+00
  0.00000000E+00  0.00000000E+00  0.00000000E+00
  0.00000000E+00  0.00000000E+00  0.00000000E+00
  0.00000000E+00  0.00000000E+00  0.00000000E+00
  0.00000000E+00  0.00000000E+00  0.00000000E+00
  0.00000000E+00  0.00000000E+00  0.00000000E+00
  0.00000000E+00  0.00000000E+00  0.00000000E+00
  0.00000000E+00  0.00000000E+00  0.00000000E+00
  0.00000000E+00  0.00000000E+00  0.00000000E+00
  0.00000000E+00  0.00000000E+00  0.00000000E+00
  0.00000000E+00  0.00000000E+00  0.00000000E+00
  0.00000000E+00  0.00000000E+00  0.00000000E+00
  0.00000000E+00  0.00000000E+00  0.00000000E+00
  0.00000000E+00  0.00000000E+00  0.00000000E+00
  0.00000000E+00  0.00000000E+00  0.00000000E+00
  0.00000000E+00  0.00000000E+00  0.00000000E+00
  0.00000000E+00  0.00000000E+00  0.00000000E+00
  0.00000000E+00  0.00000000E+00  0.00000000E+00
  0.00000000E+00  0.00000000E+00  0.00000000E+00
  0.00000000E+00  0.00000000E+00  0.00000000E+00
  0.00000000E+00  0.00000000E+00  0.00000000E+00
  0.00000000E+00  0.00000000E+00  0.00000000E+00
  0.00000000E+00  0.00000000E+00  0.00000000E+00
  0.00000000E+00  0.00000000E+00  0.00000000E+00
  0.00000000E+00  0.00000000E+00  0.00000000E+00
  0.00000000E+00  0.00000000E+00  0.00000000E+00
  0.00000000E+00  0.00000000E+00  0.00000000E+00
  0.00000000E+00  0.00000000E+00  0.00000000E+00
  0.00000000E+00  0.00000000E+00  0.00000000E+00
  0.00000000E+00  0.00000000E+00  0.00000000E+00
  0.00000000E+00  0.00000000E+00  0.00000000E+00
  0.00000000E+00  0.00000000E+00  0.00000000E+00
  0.00000000E+00  0.00000000E+00  0.00000000E+00
  0.00000000E+00  0.00000000E+00  0.00000000E+00
  0.00000000E+00  0.00000000E+00  0.00000000E+00
  0.00000000E+00  0.00000000E+00  0.00000000E+00
  0.00000000E+00  0.00000000E+00  0.00000000E+00
  0.00000000E+00  0.00000000E+00  0.00000000E+00
  0.00000000E+00  0.00000000E+00  0.00000000E+00
  0.00000000E+00  0.00000000E+00  0.00000000E+00
  0.00000000E+00  0.00000000E+00  0.00000000E+00
  0.00000000E+00  0.00000000E+00  0.00000000E+00
  0.00000000E+00  0.00000000E+00  0.00000000E+00
  0.00000000E+00  0.00000000E+00  0.00000000E+00
